c n orig vars 51
p cnf 81 117
71 0
52 -41 0
52 -38 0
52 -39 0
-52 41 38 39 0
53 -44 0
53 -45 0
-53 44 45 0
54 -55 0
54 -42 0
54 -43 0
-54 55 42 43 0
55 -22 0
55 -21 0
-55 22 21 0
56 -11 0
56 -10 0
56 -9 0
-56 11 10 9 0
57 -54 0
57 -75 0
57 -8 0
-57 54 75 8 0
58 -75 0
58 -12 0
58 -59 0
58 -56 0
-58 75 12 59 56 0
59 -67 0
59 -68 0
59 -40 0
-59 67 68 40 0
60 -80 0
60 -79 0
-60 80 79 0
61 -78 0
61 -77 0
-61 78 77 0
62 -17 0
62 -20 0
-62 17 20 0
63 -15 0
63 -18 0
-63 15 18 0
64 -13 0
64 -16 0
-64 13 16 0
65 -28 0
65 -14 0
-65 28 14 0
66 -34 0
66 -33 0
66 -29 0
-66 34 33 29 0
67 -32 0
67 -31 0
-67 32 31 0
68 -35 0
68 -37 0
68 -36 0
-68 35 37 36 0
69 -5 0
69 -26 0
-69 5 26 0
70 -19 0
70 -6 0
-70 19 6 0
-71 60 0
-71 61 0
-71 76 0
-71 58 0
-71 57 0
71 -60 -61 -76 -58 -57 0
72 -4 0
72 -67 0
72 -3 0
72 -66 0
-72 4 67 3 66 0
73 -23 0
73 -55 0
-73 23 55 0
74 -68 0
74 -7 0
74 -25 0
-74 68 7 25 0
75 -46 0
75 -52 0
75 -47 0
75 -53 0
-75 46 52 47 53 0
76 -75 0
76 -74 0
76 -73 0
76 -72 0
-76 75 74 73 72 0
77 -49 0
77 -69 0
77 -2 0
-77 49 69 2 0
78 -70 0
78 -27 0
78 -81 0
78 -48 0
-78 70 27 81 48 0
79 -51 0
79 -63 0
79 -2 0
-79 51 63 2 0
80 -64 0
80 -50 0
80 -62 0
80 -65 0
80 -30 0
-80 64 50 62 65 30 0
81 -24 0
81 -1 0
-81 24 1 0
